p edge 100 1980
e 1 2
e 1 7
e 1 12
e 1 16
e 1 17
e 1 22
e 1 26
e 1 29
e 1 32
e 1 35
e 1 39
e 1 40
e 1 44
e 1 46
e 1 48
e 1 50
e 1 54
e 1 56
e 1 59
e 1 62
e 1 63
e 1 69
e 1 73
e 1 74
e 1 75
e 1 76
e 1 78
e 1 81
e 1 82
e 1 83
e 1 84
e 1 91
e 1 92
e 1 96
e 1 98
e 2 6
e 2 7
e 2 10
e 2 11
e 2 16
e 2 18
e 2 21
e 2 22
e 2 26
e 2 30
e 2 31
e 2 32
e 2 34
e 2 35
e 2 37
e 2 38
e 2 42
e 2 43
e 2 46
e 2 47
e 2 49
e 2 51
e 2 52
e 2 56
e 2 57
e 2 58
e 2 59
e 2 62
e 2 63
e 2 64
e 2 65
e 2 67
e 2 68
e 2 69
e 2 73
e 2 76
e 2 78
e 2 79
e 2 80
e 2 82
e 2 84
e 2 87
e 2 88
e 2 91
e 2 92
e 2 98
e 2 99
e 3 8
e 3 10
e 3 12
e 3 13
e 3 16
e 3 17
e 3 19
e 3 24
e 3 29
e 3 32
e 3 33
e 3 36
e 3 37
e 3 38
e 3 39
e 3 40
e 3 43
e 3 46
e 3 53
e 3 56
e 3 57
e 3 60
e 3 61
e 3 62
e 3 63
e 3 66
e 3 68
e 3 69
e 3 70
e 3 72
e 3 73
e 3 74
e 3 75
e 3 78
e 3 81
e 3 82
e 3 84
e 3 86
e 3 87
e 3 88
e 3 89
e 3 90
e 3 91
e 3 92
e 3 94
e 3 99
e 4 5
e 4 9
e 4 10
e 4 12
e 4 13
e 4 14
e 4 17
e 4 18
e 4 19
e 4 21
e 4 32
e 4 34
e 4 35
e 4 37
e 4 44
e 4 47
e 4 49
e 4 52
e 4 53
e 4 57
e 4 60
e 4 62
e 4 63
e 4 64
e 4 65
e 4 68
e 4 71
e 4 73
e 4 75
e 4 79
e 4 83
e 4 85
e 4 86
e 4 88
e 4 89
e 4 91
e 4 93
e 4 94
e 4 95
e 4 98
e 4 99
e 4 100
e 5 8
e 5 9
e 5 10
e 5 16
e 5 17
e 5 26
e 5 27
e 5 29
e 5 32
e 5 33
e 5 42
e 5 47
e 5 50
e 5 56
e 5 57
e 5 58
e 5 59
e 5 62
e 5 68
e 5 74
e 5 75
e 5 78
e 5 83
e 5 86
e 5 88
e 5 90
e 5 92
e 5 93
e 5 94
e 5 98
e 5 99
e 5 100
e 6 7
e 6 12
e 6 15
e 6 21
e 6 27
e 6 28
e 6 29
e 6 36
e 6 37
e 6 40
e 6 45
e 6 50
e 6 51
e 6 57
e 6 59
e 6 63
e 6 65
e 6 66
e 6 68
e 6 72
e 6 73
e 6 74
e 6 77
e 6 85
e 6 89
e 6 91
e 6 93
e 6 99
e 7 8
e 7 9
e 7 10
e 7 11
e 7 21
e 7 24
e 7 27
e 7 29
e 7 31
e 7 33
e 7 34
e 7 39
e 7 41
e 7 44
e 7 46
e 7 48
e 7 51
e 7 54
e 7 55
e 7 56
e 7 58
e 7 60
e 7 61
e 7 62
e 7 63
e 7 75
e 7 76
e 7 80
e 7 81
e 7 82
e 7 85
e 7 90
e 7 91
e 7 92
e 7 97
e 7 98
e 7 99
e 8 10
e 8 13
e 8 17
e 8 18
e 8 19
e 8 20
e 8 23
e 8 24
e 8 25
e 8 29
e 8 34
e 8 35
e 8 36
e 8 37
e 8 39
e 8 41
e 8 43
e 8 44
e 8 46
e 8 51
e 8 57
e 8 58
e 8 59
e 8 60
e 8 61
e 8 62
e 8 72
e 8 73
e 8 76
e 8 77
e 8 83
e 8 84
e 8 86
e 8 88
e 8 91
e 8 93
e 8 94
e 8 97
e 8 99
e 9 10
e 9 11
e 9 12
e 9 15
e 9 16
e 9 18
e 9 20
e 9 23
e 9 25
e 9 27
e 9 31
e 9 36
e 9 48
e 9 49
e 9 50
e 9 51
e 9 52
e 9 54
e 9 59
e 9 62
e 9 63
e 9 64
e 9 66
e 9 69
e 9 74
e 9 82
e 9 85
e 9 87
e 9 89
e 9 90
e 9 92
e 9 97
e 10 11
e 10 14
e 10 18
e 10 22
e 10 25
e 10 28
e 10 31
e 10 35
e 10 36
e 10 38
e 10 41
e 10 42
e 10 45
e 10 50
e 10 51
e 10 54
e 10 55
e 10 63
e 10 66
e 10 67
e 10 69
e 10 72
e 10 73
e 10 75
e 10 79
e 10 84
e 10 87
e 10 92
e 10 93
e 10 96
e 10 97
e 11 15
e 11 17
e 11 18
e 11 22
e 11 24
e 11 25
e 11 29
e 11 36
e 11 41
e 11 45
e 11 46
e 11 47
e 11 48
e 11 49
e 11 58
e 11 64
e 11 67
e 11 69
e 11 70
e 11 74
e 11 75
e 11 79
e 11 81
e 11 82
e 11 83
e 11 88
e 11 92
e 11 95
e 11 96
e 11 99
e 12 15
e 12 16
e 12 19
e 12 21
e 12 22
e 12 27
e 12 28
e 12 29
e 12 30
e 12 31
e 12 32
e 12 41
e 12 43
e 12 52
e 12 53
e 12 55
e 12 56
e 12 57
e 12 58
e 12 62
e 12 64
e 12 67
e 12 71
e 12 80
e 12 81
e 12 83
e 12 84
e 12 90
e 12 94
e 12 100
e 13 14
e 13 16
e 13 20
e 13 22
e 13 25
e 13 27
e 13 28
e 13 29
e 13 30
e 13 32
e 13 34
e 13 36
e 13 39
e 13 43
e 13 46
e 13 47
e 13 51
e 13 52
e 13 53
e 13 55
e 13 56
e 13 57
e 13 61
e 13 64
e 13 65
e 13 66
e 13 68
e 13 71
e 13 73
e 13 76
e 13 78
e 13 80
e 13 84
e 13 87
e 13 88
e 13 93
e 13 96
e 13 97
e 14 16
e 14 17
e 14 20
e 14 23
e 14 26
e 14 29
e 14 33
e 14 34
e 14 36
e 14 37
e 14 38
e 14 39
e 14 40
e 14 41
e 14 42
e 14 46
e 14 47
e 14 50
e 14 57
e 14 61
e 14 63
e 14 64
e 14 69
e 14 72
e 14 73
e 14 74
e 14 75
e 14 78
e 14 81
e 14 84
e 14 86
e 14 89
e 14 91
e 14 92
e 14 94
e 14 96
e 14 97
e 14 100
e 15 18
e 15 19
e 15 23
e 15 24
e 15 26
e 15 29
e 15 30
e 15 32
e 15 33
e 15 36
e 15 41
e 15 48
e 15 49
e 15 50
e 15 51
e 15 52
e 15 53
e 15 55
e 15 59
e 15 60
e 15 66
e 15 67
e 15 71
e 15 74
e 15 76
e 15 77
e 15 81
e 15 84
e 15 85
e 15 89
e 15 91
e 15 93
e 15 95
e 15 97
e 16 17
e 16 21
e 16 23
e 16 24
e 16 26
e 16 27
e 16 28
e 16 32
e 16 35
e 16 36
e 16 39
e 16 40
e 16 42
e 16 43
e 16 48
e 16 55
e 16 57
e 16 66
e 16 69
e 16 71
e 16 73
e 16 81
e 16 85
e 16 89
e 16 91
e 16 92
e 16 95
e 16 96
e 16 98
e 16 100
e 17 18
e 17 19
e 17 22
e 17 25
e 17 26
e 17 28
e 17 29
e 17 32
e 17 33
e 17 42
e 17 43
e 17 44
e 17 46
e 17 47
e 17 48
e 17 57
e 17 60
e 17 62
e 17 63
e 17 66
e 17 67
e 17 69
e 17 72
e 17 75
e 17 77
e 17 78
e 17 79
e 17 81
e 17 83
e 17 84
e 17 86
e 17 95
e 17 98
e 17 100
e 18 21
e 18 22
e 18 24
e 18 25
e 18 28
e 18 29
e 18 32
e 18 34
e 18 37
e 18 38
e 18 40
e 18 41
e 18 42
e 18 43
e 18 45
e 18 46
e 18 47
e 18 50
e 18 54
e 18 55
e 18 59
e 18 60
e 18 61
e 18 62
e 18 64
e 18 70
e 18 75
e 18 78
e 18 83
e 18 87
e 18 89
e 18 90
e 18 91
e 18 92
e 18 93
e 18 95
e 19 29
e 19 32
e 19 34
e 19 42
e 19 43
e 19 48
e 19 49
e 19 53
e 19 54
e 19 56
e 19 62
e 19 63
e 19 64
e 19 65
e 19 69
e 19 72
e 19 74
e 19 76
e 19 81
e 19 84
e 19 85
e 19 87
e 19 90
e 19 97
e 19 99
e 20 22
e 20 23
e 20 24
e 20 25
e 20 27
e 20 29
e 20 31
e 20 32
e 20 36
e 20 37
e 20 41
e 20 42
e 20 44
e 20 46
e 20 49
e 20 51
e 20 52
e 20 53
e 20 55
e 20 56
e 20 59
e 20 60
e 20 61
e 20 62
e 20 63
e 20 64
e 20 67
e 20 68
e 20 75
e 20 76
e 20 78
e 20 84
e 20 86
e 20 87
e 20 90
e 20 93
e 20 94
e 20 96
e 20 99
e 20 100
e 21 22
e 21 23
e 21 26
e 21 28
e 21 29
e 21 31
e 21 34
e 21 35
e 21 36
e 21 40
e 21 41
e 21 43
e 21 47
e 21 53
e 21 55
e 21 57
e 21 58
e 21 59
e 21 60
e 21 63
e 21 65
e 21 66
e 21 69
e 21 70
e 21 75
e 21 77
e 21 78
e 21 79
e 21 85
e 21 86
e 21 88
e 21 89
e 21 92
e 21 93
e 21 94
e 21 95
e 21 97
e 21 100
e 22 26
e 22 29
e 22 30
e 22 32
e 22 34
e 22 35
e 22 36
e 22 37
e 22 38
e 22 43
e 22 44
e 22 45
e 22 48
e 22 49
e 22 50
e 22 51
e 22 53
e 22 54
e 22 61
e 22 62
e 22 70
e 22 72
e 22 74
e 22 77
e 22 85
e 22 86
e 22 88
e 22 92
e 22 97
e 23 24
e 23 27
e 23 29
e 23 30
e 23 31
e 23 32
e 23 41
e 23 43
e 23 57
e 23 59
e 23 66
e 23 68
e 23 70
e 23 73
e 23 78
e 23 79
e 23 87
e 23 88
e 23 89
e 23 94
e 23 95
e 24 26
e 24 34
e 24 35
e 24 41
e 24 42
e 24 44
e 24 46
e 24 48
e 24 49
e 24 50
e 24 51
e 24 60
e 24 61
e 24 65
e 24 68
e 24 71
e 24 72
e 24 74
e 24 76
e 24 78
e 24 83
e 24 84
e 24 96
e 24 99
e 25 29
e 25 32
e 25 35
e 25 36
e 25 40
e 25 42
e 25 43
e 25 45
e 25 47
e 25 48
e 25 54
e 25 55
e 25 59
e 25 65
e 25 67
e 25 68
e 25 71
e 25 74
e 25 76
e 25 80
e 25 81
e 25 82
e 25 88
e 25 89
e 25 90
e 25 91
e 25 96
e 25 97
e 26 28
e 26 39
e 26 41
e 26 44
e 26 49
e 26 50
e 26 52
e 26 54
e 26 55
e 26 60
e 26 62
e 26 64
e 26 66
e 26 67
e 26 68
e 26 69
e 26 71
e 26 72
e 26 77
e 26 80
e 26 83
e 26 90
e 26 96
e 26 98
e 27 39
e 27 42
e 27 47
e 27 49
e 27 50
e 27 51
e 27 53
e 27 55
e 27 58
e 27 59
e 27 61
e 27 62
e 27 67
e 27 69
e 27 71
e 27 72
e 27 74
e 27 75
e 27 77
e 27 78
e 27 79
e 27 80
e 27 81
e 27 84
e 27 86
e 27 87
e 27 88
e 27 90
e 27 92
e 28 30
e 28 31
e 28 35
e 28 40
e 28 41
e 28 43
e 28 44
e 28 47
e 28 48
e 28 49
e 28 55
e 28 57
e 28 75
e 28 76
e 28 78
e 28 80
e 28 81
e 28 86
e 28 88
e 28 89
e 28 91
e 28 92
e 28 93
e 28 96
e 28 97
e 29 30
e 29 35
e 29 36
e 29 37
e 29 43
e 29 45
e 29 50
e 29 54
e 29 55
e 29 56
e 29 59
e 29 65
e 29 66
e 29 68
e 29 71
e 29 73
e 29 78
e 29 79
e 29 81
e 29 82
e 29 84
e 29 85
e 29 97
e 29 99
e 29 100
e 30 32
e 30 40
e 30 42
e 30 50
e 30 51
e 30 52
e 30 54
e 30 61
e 30 63
e 30 65
e 30 66
e 30 67
e 30 69
e 30 74
e 30 76
e 30 77
e 30 80
e 30 85
e 30 86
e 30 89
e 30 90
e 30 92
e 30 94
e 30 95
e 31 33
e 31 39
e 31 43
e 31 44
e 31 46
e 31 51
e 31 53
e 31 55
e 31 56
e 31 58
e 31 62
e 31 64
e 31 67
e 31 69
e 31 71
e 31 74
e 31 76
e 31 79
e 31 80
e 31 81
e 31 82
e 31 84
e 31 85
e 31 88
e 31 89
e 31 91
e 31 92
e 31 94
e 31 95
e 31 97
e 31 99
e 32 35
e 32 36
e 32 37
e 32 39
e 32 40
e 32 42
e 32 50
e 32 51
e 32 52
e 32 56
e 32 58
e 32 60
e 32 61
e 32 63
e 32 66
e 32 72
e 32 73
e 32 74
e 32 76
e 32 79
e 32 83
e 32 84
e 32 85
e 32 86
e 32 87
e 32 90
e 32 92
e 32 93
e 32 94
e 32 95
e 32 96
e 32 98
e 32 99
e 33 34
e 33 35
e 33 37
e 33 40
e 33 41
e 33 42
e 33 43
e 33 47
e 33 50
e 33 51
e 33 52
e 33 56
e 33 57
e 33 58
e 33 60
e 33 67
e 33 68
e 33 69
e 33 71
e 33 72
e 33 75
e 33 76
e 33 77
e 33 78
e 33 82
e 33 86
e 33 92
e 33 93
e 33 94
e 33 96
e 34 37
e 34 39
e 34 40
e 34 42
e 34 45
e 34 46
e 34 57
e 34 58
e 34 60
e 34 61
e 34 64
e 34 67
e 34 69
e 34 71
e 34 75
e 34 79
e 34 80
e 34 81
e 34 83
e 34 84
e 34 86
e 34 87
e 34 89
e 34 93
e 34 96
e 34 97
e 35 37
e 35 38
e 35 39
e 35 44
e 35 45
e 35 46
e 35 48
e 35 52
e 35 57
e 35 58
e 35 61
e 35 62
e 35 63
e 35 64
e 35 65
e 35 67
e 35 68
e 35 69
e 35 74
e 35 75
e 35 77
e 35 81
e 35 84
e 35 87
e 35 91
e 35 92
e 35 93
e 35 94
e 35 95
e 35 96
e 35 99
e 36 37
e 36 38
e 36 43
e 36 52
e 36 55
e 36 56
e 36 57
e 36 60
e 36 61
e 36 65
e 36 66
e 36 67
e 36 68
e 36 69
e 36 70
e 36 71
e 36 72
e 36 78
e 36 86
e 36 91
e 36 93
e 36 97
e 36 98
e 36 99
e 37 39
e 37 45
e 37 46
e 37 51
e 37 53
e 37 54
e 37 55
e 37 56
e 37 60
e 37 62
e 37 64
e 37 65
e 37 68
e 37 69
e 37 71
e 37 72
e 37 73
e 37 77
e 37 78
e 37 82
e 37 83
e 37 84
e 37 88
e 37 89
e 37 93
e 37 94
e 37 95
e 37 98
e 38 42
e 38 43
e 38 45
e 38 48
e 38 52
e 38 53
e 38 56
e 38 57
e 38 62
e 38 63
e 38 64
e 38 65
e 38 66
e 38 70
e 38 71
e 38 75
e 38 78
e 38 81
e 38 85
e 38 86
e 38 88
e 38 89
e 38 97
e 38 98
e 38 99
e 39 40
e 39 42
e 39 45
e 39 51
e 39 54
e 39 56
e 39 57
e 39 63
e 39 64
e 39 69
e 39 70
e 39 71
e 39 73
e 39 74
e 39 75
e 39 79
e 39 86
e 39 87
e 39 89
e 39 92
e 39 93
e 39 95
e 39 96
e 39 97
e 39 99
e 40 41
e 40 45
e 40 46
e 40 47
e 40 48
e 40 49
e 40 51
e 40 53
e 40 55
e 40 58
e 40 60
e 40 61
e 40 63
e 40 66
e 40 67
e 40 74
e 40 75
e 40 76
e 40 77
e 40 81
e 40 86
e 40 90
e 40 92
e 40 94
e 40 97
e 41 42
e 41 43
e 41 44
e 41 45
e 41 49
e 41 50
e 41 56
e 41 57
e 41 59
e 41 60
e 41 63
e 41 65
e 41 68
e 41 69
e 41 70
e 41 74
e 41 77
e 41 78
e 41 80
e 41 82
e 41 85
e 41 87
e 41 90
e 41 92
e 41 94
e 41 95
e 41 97
e 41 98
e 42 43
e 42 49
e 42 50
e 42 52
e 42 58
e 42 61
e 42 62
e 42 64
e 42 67
e 42 68
e 42 69
e 42 71
e 42 72
e 42 74
e 42 77
e 42 79
e 42 83
e 42 86
e 42 87
e 42 91
e 42 93
e 42 96
e 42 98
e 42 100
e 43 44
e 43 45
e 43 48
e 43 51
e 43 52
e 43 56
e 43 58
e 43 59
e 43 61
e 43 64
e 43 66
e 43 67
e 43 70
e 43 74
e 43 75
e 43 81
e 43 82
e 43 83
e 43 88
e 43 90
e 43 92
e 43 93
e 43 94
e 43 97
e 43 100
e 44 45
e 44 46
e 44 49
e 44 52
e 44 53
e 44 56
e 44 62
e 44 66
e 44 68
e 44 69
e 44 70
e 44 74
e 44 79
e 44 81
e 44 89
e 44 91
e 44 92
e 44 95
e 44 98
e 44 99
e 45 52
e 45 54
e 45 55
e 45 56
e 45 57
e 45 59
e 45 61
e 45 64
e 45 65
e 45 66
e 45 67
e 45 68
e 45 70
e 45 71
e 45 74
e 45 76
e 45 77
e 45 82
e 45 85
e 45 87
e 45 89
e 45 90
e 45 92
e 46 47
e 46 52
e 46 55
e 46 56
e 46 57
e 46 62
e 46 64
e 46 67
e 46 70
e 46 71
e 46 73
e 46 74
e 46 77
e 46 80
e 46 83
e 46 84
e 46 88
e 46 89
e 46 92
e 46 93
e 46 94
e 46 96
e 46 98
e 47 48
e 47 49
e 47 51
e 47 55
e 47 56
e 47 59
e 47 64
e 47 65
e 47 66
e 47 67
e 47 68
e 47 70
e 47 73
e 47 74
e 47 76
e 47 80
e 47 83
e 47 87
e 47 88
e 47 89
e 47 91
e 47 92
e 47 94
e 47 95
e 47 99
e 47 100
e 48 50
e 48 51
e 48 52
e 48 53
e 48 54
e 48 57
e 48 63
e 48 66
e 48 67
e 48 69
e 48 70
e 48 71
e 48 72
e 48 75
e 48 76
e 48 79
e 48 81
e 48 86
e 48 88
e 48 91
e 48 95
e 48 97
e 48 98
e 49 51
e 49 54
e 49 58
e 49 62
e 49 65
e 49 66
e 49 67
e 49 69
e 49 72
e 49 74
e 49 77
e 49 78
e 49 80
e 49 84
e 49 86
e 49 88
e 49 91
e 49 92
e 49 93
e 49 94
e 49 96
e 49 97
e 49 99
e 49 100
e 50 51
e 50 56
e 50 57
e 50 69
e 50 71
e 50 72
e 50 75
e 50 78
e 50 79
e 50 80
e 50 81
e 50 83
e 50 84
e 50 86
e 50 88
e 50 89
e 50 95
e 50 97
e 50 99
e 50 100
e 51 53
e 51 58
e 51 60
e 51 61
e 51 65
e 51 67
e 51 68
e 51 69
e 51 75
e 51 76
e 51 79
e 51 83
e 51 85
e 51 88
e 51 93
e 51 97
e 51 98
e 51 99
e 52 53
e 52 54
e 52 55
e 52 57
e 52 58
e 52 62
e 52 63
e 52 68
e 52 70
e 52 71
e 52 72
e 52 75
e 52 78
e 52 79
e 52 81
e 52 83
e 52 84
e 52 87
e 52 88
e 52 92
e 52 93
e 52 95
e 52 99
e 52 100
e 53 54
e 53 55
e 53 58
e 53 59
e 53 62
e 53 63
e 53 64
e 53 65
e 53 66
e 53 72
e 53 73
e 53 75
e 53 78
e 53 79
e 53 84
e 53 85
e 53 86
e 53 87
e 53 88
e 53 90
e 53 91
e 53 93
e 53 94
e 53 96
e 53 97
e 53 98
e 53 99
e 53 100
e 54 55
e 54 57
e 54 66
e 54 68
e 54 70
e 54 74
e 54 76
e 54 77
e 54 79
e 54 82
e 54 84
e 54 87
e 54 89
e 54 97
e 54 98
e 54 100
e 55 56
e 55 60
e 55 64
e 55 66
e 55 69
e 55 71
e 55 77
e 55 78
e 55 80
e 55 87
e 55 91
e 55 96
e 55 99
e 56 57
e 56 59
e 56 60
e 56 64
e 56 68
e 56 69
e 56 70
e 56 73
e 56 74
e 56 75
e 56 76
e 56 81
e 56 85
e 56 88
e 56 89
e 56 91
e 56 96
e 56 100
e 57 58
e 57 61
e 57 62
e 57 70
e 57 75
e 57 77
e 57 79
e 57 81
e 57 84
e 57 85
e 57 92
e 57 93
e 57 95
e 57 96
e 57 97
e 57 98
e 57 99
e 57 100
e 58 62
e 58 66
e 58 69
e 58 73
e 58 74
e 58 75
e 58 76
e 58 77
e 58 81
e 58 88
e 58 92
e 58 94
e 58 95
e 58 96
e 59 64
e 59 67
e 59 69
e 59 71
e 59 73
e 59 74
e 59 79
e 59 93
e 59 95
e 59 98
e 59 100
e 60 61
e 60 62
e 60 64
e 60 65
e 60 67
e 60 69
e 60 71
e 60 73
e 60 75
e 60 76
e 60 77
e 60 79
e 60 86
e 60 87
e 60 90
e 60 91
e 60 92
e 60 94
e 60 95
e 60 96
e 60 98
e 60 99
e 60 100
e 61 62
e 61 63
e 61 65
e 61 66
e 61 69
e 61 70
e 61 76
e 61 79
e 61 80
e 61 81
e 61 83
e 61 92
e 61 94
e 61 95
e 61 96
e 61 98
e 61 100
e 62 64
e 62 66
e 62 67
e 62 70
e 62 72
e 62 76
e 62 80
e 62 82
e 62 83
e 62 85
e 62 86
e 62 94
e 62 96
e 62 97
e 62 99
e 62 100
e 63 67
e 63 70
e 63 72
e 63 73
e 63 74
e 63 75
e 63 76
e 63 78
e 63 84
e 63 88
e 63 94
e 63 95
e 64 68
e 64 69
e 64 70
e 64 71
e 64 78
e 64 79
e 64 89
e 64 92
e 64 94
e 64 98
e 64 99
e 64 100
e 65 67
e 65 72
e 65 73
e 65 77
e 65 79
e 65 80
e 65 81
e 65 82
e 65 87
e 65 88
e 65 89
e 65 92
e 65 95
e 65 98
e 65 100
e 66 68
e 66 70
e 66 71
e 66 73
e 66 75
e 66 76
e 66 80
e 66 81
e 66 92
e 66 93
e 66 95
e 66 98
e 66 99
e 67 68
e 67 69
e 67 72
e 67 76
e 67 77
e 67 79
e 67 81
e 67 82
e 67 83
e 67 88
e 67 91
e 67 93
e 67 97
e 67 98
e 67 100
e 68 73
e 68 79
e 68 80
e 68 81
e 68 86
e 68 89
e 68 99
e 68 100
e 69 71
e 69 74
e 69 75
e 69 77
e 69 81
e 69 84
e 69 87
e 69 88
e 69 90
e 69 92
e 69 95
e 69 98
e 70 71
e 70 73
e 70 75
e 70 76
e 70 77
e 70 78
e 70 82
e 70 86
e 70 89
e 70 91
e 70 93
e 70 94
e 70 96
e 70 98
e 70 100
e 71 72
e 71 75
e 71 79
e 71 84
e 71 85
e 71 86
e 71 87
e 71 88
e 71 98
e 72 74
e 72 78
e 72 79
e 72 85
e 72 86
e 72 92
e 72 93
e 72 95
e 72 97
e 73 75
e 73 76
e 73 79
e 73 80
e 73 81
e 73 86
e 73 91
e 73 92
e 73 94
e 73 95
e 73 98
e 73 100
e 74 78
e 74 79
e 74 80
e 74 84
e 74 85
e 74 86
e 74 88
e 74 90
e 74 91
e 74 92
e 74 93
e 74 94
e 74 97
e 74 98
e 75 78
e 75 80
e 75 86
e 75 87
e 75 88
e 75 91
e 75 92
e 75 95
e 75 96
e 75 98
e 75 99
e 76 78
e 76 81
e 76 83
e 76 86
e 76 90
e 76 96
e 76 99
e 77 80
e 77 84
e 77 87
e 77 89
e 77 90
e 77 92
e 77 93
e 77 94
e 77 97
e 78 79
e 78 82
e 78 84
e 78 88
e 78 90
e 78 91
e 78 93
e 78 95
e 78 96
e 78 99
e 78 100
e 79 82
e 79 83
e 79 84
e 79 85
e 79 88
e 79 92
e 79 93
e 79 95
e 79 96
e 79 98
e 79 99
e 79 100
e 80 81
e 80 94
e 80 99
e 81 85
e 81 86
e 81 89
e 81 93
e 81 95
e 81 98
e 82 83
e 82 84
e 82 85
e 82 91
e 82 93
e 82 95
e 82 97
e 83 85
e 83 87
e 83 88
e 83 90
e 83 93
e 83 94
e 83 98
e 83 99
e 84 92
e 84 95
e 84 97
e 84 99
e 85 86
e 85 87
e 85 88
e 85 92
e 85 95
e 85 96
e 86 87
e 86 88
e 86 93
e 86 94
e 86 98
e 86 99
e 87 89
e 87 91
e 87 92
e 87 94
e 88 90
e 88 93
e 88 95
e 88 100
e 89 96
e 89 97
e 89 98
e 89 99
e 90 91
e 90 92
e 90 93
e 90 94
e 90 96
e 90 97
e 90 98
e 90 99
e 90 100
e 91 93
e 91 95
e 91 97
e 91 99
e 92 97
e 92 98
e 92 99
e 93 94
e 93 95
e 93 97
e 93 100
e 94 95
e 94 97
e 94 100
e 95 96
e 95 97
e 95 99
e 95 100
e 96 98
e 97 99
e 98 99
e 99 100
